c description: Tseitin formula on Random 5-regular graph of 10 vertices, with odd charge
c generator: CNFgen (0.9.0)
c copyright: (C) 2012-2020 Massimo Lauria <massimo.lauria@uniroma1.it>
c url: https://massimolauria.net/cnfgen
c random seed: 1
c command line: cnfgen --seed 1 tseitin randomodd gnd 10 5
c
p cnf 25 160
1 2 3 4 -5 0
1 2 3 -4 5 0
1 2 -3 4 5 0
1 2 -3 -4 -5 0
1 -2 3 4 5 0
1 -2 3 -4 -5 0
1 -2 -3 4 -5 0
1 -2 -3 -4 5 0
-1 2 3 4 5 0
-1 2 3 -4 -5 0
-1 2 -3 4 -5 0
-1 2 -3 -4 5 0
-1 -2 3 4 -5 0
-1 -2 3 -4 5 0
-1 -2 -3 4 5 0
-1 -2 -3 -4 -5 0
6 7 8 9 -10 0
6 7 8 -9 10 0
6 7 -8 9 10 0
6 7 -8 -9 -10 0
6 -7 8 9 10 0
6 -7 8 -9 -10 0
6 -7 -8 9 -10 0
6 -7 -8 -9 10 0
-6 7 8 9 10 0
-6 7 8 -9 -10 0
-6 7 -8 9 -10 0
-6 7 -8 -9 10 0
-6 -7 8 9 -10 0
-6 -7 8 -9 10 0
-6 -7 -8 9 10 0
-6 -7 -8 -9 -10 0
1 11 12 13 14 0
1 11 12 -13 -14 0
1 11 -12 13 -14 0
1 11 -12 -13 14 0
1 -11 12 13 -14 0
1 -11 12 -13 14 0
1 -11 -12 13 14 0
1 -11 -12 -13 -14 0
-1 11 12 13 -14 0
-1 11 12 -13 14 0
-1 11 -12 13 14 0
-1 11 -12 -13 -14 0
-1 -11 12 13 14 0
-1 -11 12 -13 -14 0
-1 -11 -12 13 -14 0
-1 -11 -12 -13 14 0
2 15 16 17 -18 0
2 15 16 -17 18 0
2 15 -16 17 18 0
2 15 -16 -17 -18 0
2 -15 16 17 18 0
2 -15 16 -17 -18 0
2 -15 -16 17 -18 0
2 -15 -16 -17 18 0
-2 15 16 17 18 0
-2 15 16 -17 -18 0
-2 15 -16 17 -18 0
-2 15 -16 -17 18 0
-2 -15 16 17 -18 0
-2 -15 16 -17 18 0
-2 -15 -16 17 18 0
-2 -15 -16 -17 -18 0
6 11 15 19 20 0
6 11 15 -19 -20 0
6 11 -15 19 -20 0
6 11 -15 -19 20 0
6 -11 15 19 -20 0
6 -11 15 -19 20 0
6 -11 -15 19 20 0
6 -11 -15 -19 -20 0
-6 11 15 19 -20 0
-6 11 15 -19 20 0
-6 11 -15 19 20 0
-6 11 -15 -19 -20 0
-6 -11 15 19 20 0
-6 -11 15 -19 -20 0
-6 -11 -15 19 -20 0
-6 -11 -15 -19 20 0
3 16 19 21 22 0
3 16 19 -21 -22 0
3 16 -19 21 -22 0
3 16 -19 -21 22 0
3 -16 19 21 -22 0
3 -16 19 -21 22 0
3 -16 -19 21 22 0
3 -16 -19 -21 -22 0
-3 16 19 21 -22 0
-3 16 19 -21 22 0
-3 16 -19 21 22 0
-3 16 -19 -21 -22 0
-3 -16 19 21 22 0
-3 -16 19 -21 -22 0
-3 -16 -19 21 -22 0
-3 -16 -19 -21 22 0
7 12 17 20 23 0
7 12 17 -20 -23 0
7 12 -17 20 -23 0
7 12 -17 -20 23 0
7 -12 17 20 -23 0
7 -12 17 -20 23 0
7 -12 -17 20 23 0
7 -12 -17 -20 -23 0
-7 12 17 20 -23 0
-7 12 17 -20 23 0
-7 12 -17 20 23 0
-7 12 -17 -20 -23 0
-7 -12 17 20 23 0
-7 -12 17 -20 -23 0
-7 -12 -17 20 -23 0
-7 -12 -17 -20 23 0
4 8 21 23 24 0
4 8 21 -23 -24 0
4 8 -21 23 -24 0
4 8 -21 -23 24 0
4 -8 21 23 -24 0
4 -8 21 -23 24 0
4 -8 -21 23 24 0
4 -8 -21 -23 -24 0
-4 8 21 23 -24 0
-4 8 21 -23 24 0
-4 8 -21 23 24 0
-4 8 -21 -23 -24 0
-4 -8 21 23 24 0
-4 -8 21 -23 -24 0
-4 -8 -21 23 -24 0
-4 -8 -21 -23 24 0
5 9 13 18 -25 0
5 9 13 -18 25 0
5 9 -13 18 25 0
5 9 -13 -18 -25 0
5 -9 13 18 25 0
5 -9 13 -18 -25 0
5 -9 -13 18 -25 0
5 -9 -13 -18 25 0
-5 9 13 18 25 0
-5 9 13 -18 -25 0
-5 9 -13 18 -25 0
-5 9 -13 -18 25 0
-5 -9 13 18 -25 0
-5 -9 13 -18 25 0
-5 -9 -13 18 25 0
-5 -9 -13 -18 -25 0
10 14 22 24 -25 0
10 14 22 -24 25 0
10 14 -22 24 25 0
10 14 -22 -24 -25 0
10 -14 22 24 25 0
10 -14 22 -24 -25 0
10 -14 -22 24 -25 0
10 -14 -22 -24 25 0
-10 14 22 24 25 0
-10 14 22 -24 -25 0
-10 14 -22 24 -25 0
-10 14 -22 -24 25 0
-10 -14 22 24 -25 0
-10 -14 22 -24 25 0
-10 -14 -22 24 25 0
-10 -14 -22 -24 -25 0
